POSCAR file written by OVITO Pro 3.10.1
1
264.9577 0.0 0.0
0.0 264.9577 0.0
0.0 0.0 16.2219
Ce O 
28812 57624 
Cartesian
0.0 0.0 0.0
0.0 2.70365 2.70365
2.70365 0.0 2.70365
2.70365 2.70365 0.0
0.0 0.0 5.4073
0.0 2.70365 8.11095
2.70365 0.0 8.11095
2.70365 2.70365 5.4073
0.0 0.0 10.8146
0.0 2.70365 13.51825
2.70365 0.0 13.51825
2.70365 2.70365 10.8146
0.0 5.4073 0.0
0.0 8.11095 2.70365
2.70365 5.4073 2.70365
2.70365 8.11095 0.0
0.0 5.4073 5.4073
0.0 8.11095 8.11095
2.70365 5.4073 8.11095
2.70365 8.11095 5.4073
0.0 5.4073 10.8146
0.0 8.11095 13.51825
2.70365 5.4073 13.51825
2.70365 8.11095 10.8146
0.0 10.8146 0.0
0.0 13.51825 2.70365
2.70365 10.8146 2.70365
2.70365 13.51825 0.0
0.0 10.8146 5.4073
0.0 13.51825 8.11095
2.70365 10.8146 8.11095
2.70365 13.51825 5.4073
0.0 10.8146 10.8146
0.0 13.51825 13.51825
2.70365 10.8146 13.51825
2.70365 13.51825 10.8146
0.0 16.2219 0.0
0.0 18.92555 2.70365
2.70365 16.2219 2.70365
2.70365 18.92555 0.0
0.0 16.2219 5.4073
0.0 18.92555 8.11095
2.70365 16.2219 8.11095
2.70365 18.92555 5.4073
0.0 16.2219 10.8146
0.0 18.92555 13.51825
2.70365 16.2219 13.51825
2.70365 18.92555 10.8146
0.0 21.6292 0.0
0.0 24.33285 2.70365
2.70365 21.6292 2.70365
2.70365 24.33285 0.0
0.0 21.6292 5.4073
0.0 24.33285 8.11095
2.70365 21.6292 8.11095
2.70365 24.33285 5.4073
0.0 21.6292 10.8146
0.0 24.33285 13.51825
2.70365 21.6292 13.51825
2.70365 24.33285 10.8146
0.0 27.0365 0.0
0.0 29.74015 2.70365
2.70365 27.0365 2.70365
2.70365 29.74015 0.0
0.0 27.0365 5.4073
0.0 29.74015 8.11095
2.70365 27.0365 8.11095
2.70365 29.74015 5.4073
0.0 27.0365 10.8146
0.0 29.74015 13.51825
2.70365 27.0365 13.51825
2.70365 29.74015 10.8146
0.0 32.4438 0.0
0.0 35.14745 2.70365
2.70365 32.4438 2.70365
2.70365 35.14745 0.0
0.0 32.4438 5.4073
0.0 35.14745 8.11095
2.70365 32.4438 8.11095
2.70365 35.14745 5.4073
0.0 32.4438 10.8146
0.0 35.14745 13.51825
2.70365 32.4438 13.51825
2.70365 35.14745 10.8146
0.0 37.8511 0.0
0.0 40.55475 2.70365
2.70365 37.8511 2.70365
2.70365 40.55475 0.0
0.0 37.8511 5.4073
0.0 40.55475 8.11095
2.70365 37.8511 8.11095
2.70365 40.55475 5.4073
0.0 37.8511 10.8146
0.0 40.55475 13.51825
2.70365 37.8511 13.51825
2.70365 40.55475 10.8146
0.0 43.2584 0.0
0.0 45.96205 2.70365
2.70365 43.2584 2.70365
2.70365 45.96205 0.0
0.0 43.2584 5.4073
0.0 45.96205 8.11095
2.70365 43.2584 8.11095
2.70365 45.96205 5.4073
0.0 43.2584 10.8146
0.0 45.96205 13.51825
2.70365 43.2584 13.51825
2.70365 45.96205 10.8146
0.0 48.6657 0.0
0.0 51.36935 2.70365
2.70365 48.6657 2.70365
2.70365 51.36935 0.0
0.0 48.6657 5.4073
0.0 51.36935 8.11095
2.70365 48.6657 8.11095
2.70365 51.36935 5.4073
0.0 48.6657 10.8146
0.0 51.36935 13.51825
2.70365 48.6657 13.51825
2.70365 51.36935 10.8146
0.0 54.073 0.0
0.0 56.77665 2.70365
2.70365 54.073 2.70365
2.70365 56.77665 0.0
0.0 54.073 5.4073
0.0 56.77665 8.11095
2.70365 54.073 8.11095
2.70365 56.77665 5.4073
0.0 54.073 10.8146
0.0 56.77665 13.51825
2.70365 54.073 13.51825
2.70365 56.77665 10.8146
0.0 59.4803 0.0
0.0 62.18395 2.70365
2.70365 59.4803 2.70365
2.70365 62.18395 0.0
0.0 59.4803 5.4073
0.0 62.18395 8.11095
2.70365 59.4803 8.11095
2.70365 62.18395 5.4073
0.0 59.4803 10.8146
0.0 62.18395 13.51825
2.70365 59.4803 13.51825
2.70365 62.18395 10.8146
0.0 64.8876 0.0
0.0 67.59125 2.70365
2.70365 64.8876 2.70365
2.70365 67.59125 0.0
0.0 64.8876 5.4073
0.0 67.59125 8.11095
2.70365 64.8876 8.11095
2.70365 67.59125 5.4073
0.0 64.8876 10.8146
0.0 67.59125 13.51825
2.70365 64.8876 13.51825
2.70365 67.59125 10.8146
0.0 70.2949 0.0
0.0 72.99855 2.70365
2.70365 70.2949 2.70365
2.70365 72.99855 0.0
0.0 70.2949 5.4073
0.0 72.99855 8.11095
2.70365 70.2949 8.11095
2.70365 72.99855 5.4073
0.0 70.2949 10.8146
0.0 72.99855 13.51825
2.70365 70.2949 13.51825
2.70365 72.99855 10.8146
0.0 75.7022 0.0
0.0 78.40585 2.70365
2.70365 75.7022 2.70365
2.70365 78.40585 0.0
0.0 75.7022 5.4073
0.0 78.40585 8.11095
2.70365 75.7022 8.11095
2.70365 78.40585 5.4073
0.0 75.7022 10.8146
0.0 78.40585 13.51825
2.70365 75.7022 13.51825
2.70365 78.40585 10.8146
0.0 81.1095 0.0
0.0 83.81315 2.70365
2.70365 81.1095 2.70365
2.70365 83.81315 0.0
0.0 81.1095 5.4073
0.0 83.81315 8.11095
2.70365 81.1095 8.11095
2.70365 83.81315 5.4073
0.0 81.1095 10.8146
0.0 83.81315 13.51825
2.70365 81.1095 13.51825
2.70365 83.81315 10.8146
0.0 86.5168 0.0
0.0 89.22045 2.70365
2.70365 86.5168 2.70365
2.70365 89.22045 0.0
0.0 86.5168 5.4073
0.0 89.22045 8.11095
2.70365 86.5168 8.11095
2.70365 89.22045 5.4073
0.0 86.5168 10.8146
0.0 89.22045 13.51825
2.70365 86.5168 13.51825
2.70365 89.22045 10.8146
0.0 91.9241 0.0
0.0 94.62775 2.70365
2.70365 91.9241 2.70365
2.70365 94.62775 0.0
0.0 91.9241 5.4073
0.0 94.62775 8.11095
2.70365 91.9241 8.11095
2.70365 94.62775 5.4073
0.0 91.9241 10.8146
0.0 94.62775 13.51825
2.70365 91.9241 13.51825
2.70365 94.62775 10.8146
0.0 97.3314 0.0
0.0 100.03505 2.70365
2.70365 97.3314 2.70365
2.70365 100.03505 0.0
0.0 97.3314 5.4073
0.0 100.03505 8.11095
2.70365 97.3314 8.11095
2.70365 100.03505 5.4073
0.0 97.3314 10.8146
0.0 100.03505 13.51825
2.70365 97.3314 13.51825
2.70365 100.03505 10.8146
0.0 102.7387 0.0
0.0 105.44235 2.70365
2.70365 102.7387 2.70365
2.70365 105.44235 0.0
0.0 102.7387 5.4073
0.0 105.44235 8.11095
2.70365 102.7387 8.11095
2.70365 105.44235 5.4073
0.0 102.7387 10.8146
0.0 105.44235 13.51825
2.70365 102.7387 13.51825
2.70365 105.44235 10.8146
0.0 108.146 0.0
0.0 110.84965 2.70365
2.70365 108.146 2.70365
2.70365 110.84965 0.0
0.0 108.146 5.4073
0.0 110.84965 8.11095
2.70365 108.146 8.11095
2.70365 110.84965 5.4073
0.0 108.146 10.8146
0.0 110.84965 13.51825
2.70365 108.146 13.51825
2.70365 110.84965 10.8146
0.0 113.5533 0.0
0.0 116.25695 2.70365
2.70365 113.5533 2.70365
2.70365 116.25695 0.0
0.0 113.5533 5.4073
0.0 116.25695 8.11095
2.70365 113.5533 8.11095
2.70365 116.25695 5.4073
0.0 113.5533 10.8146
0.0 116.25695 13.51825
2.70365 113.5533 13.51825
2.70365 116.25695 10.8146
0.0 118.9606 0.0
0.0 121.66425 2.70365
2.70365 118.9606 2.70365
2.70365 121.66425 0.0
0.0 118.9606 5.4073
0.0 121.66425 8.11095
2.70365 118.9606 8.11095
2.70365 121.66425 5.4073
0.0 118.9606 10.8146
0.0 121.66425 13.51825
2.70365 118.9606 13.51825
2.70365 121.66425 10.8146
0.0 124.3679 0.0
0.0 127.07155 2.70365
2.70365 124.3679 2.70365
2.70365 127.07155 0.0
0.0 124.3679 5.4073
0.0 127.07155 8.11095
2.70365 124.3679 8.11095
2.70365 127.07155 5.4073
0.0 124.3679 10.8146
0.0 127.07155 13.51825
2.70365 124.3679 13.51825
2.70365 127.07155 10.8146
0.0 129.7752 0.0
0.0 132.47885 2.70365
2.70365 129.7752 2.70365
2.70365 132.47885 0.0
0.0 129.7752 5.4073
0.0 132.47885 8.11095
2.70365 129.7752 8.11095
2.70365 132.47885 5.4073
0.0 129.7752 10.8146
0.0 132.47885 13.51825
2.70365 129.7752 13.51825
2.70365 132.47885 10.8146
0.0 135.1825 0.0
0.0 137.88615 2.70365
2.70365 135.1825 2.70365
2.70365 137.88615 0.0
0.0 135.1825 5.4073
0.0 137.88615 8.11095
2.70365 135.1825 8.11095
2.70365 137.88615 5.4073
0.0 135.1825 10.8146
0.0 137.88615 13.51825
2.70365 135.1825 13.51825
2.70365 137.88615 10.8146
0.0 140.5898 0.0
0.0 143.29345 2.70365
2.70365 140.5898 2.70365
2.70365 143.29345 0.0
0.0 140.5898 5.4073
0.0 143.29345 8.11095
2.70365 140.5898 8.11095
2.70365 143.29345 5.4073
0.0 140.5898 10.8146
0.0 143.29345 13.51825
2.70365 140.5898 13.51825
2.70365 143.29345 10.8146
0.0 145.9971 0.0
0.0 148.70075 2.70365
2.70365 145.9971 2.70365
2.70365 148.70075 0.0
0.0 145.9971 5.4073
0.0 148.70075 8.11095
2.70365 145.9971 8.11095
2.70365 148.70075 5.4073
0.0 145.9971 10.8146
0.0 148.70075 13.51825
2.70365 145.9971 13.51825
2.70365 148.70075 10.8146
0.0 151.4044 0.0
0.0 154.10805 2.70365
2.70365 151.4044 2.70365
2.70365 154.10805 0.0
0.0 151.4044 5.4073
0.0 154.10805 8.11095
2.70365 151.4044 8.11095
2.70365 154.10805 5.4073
0.0 151.4044 10.8146
0.0 154.10805 13.51825
2.70365 151.4044 13.51825
2.70365 154.10805 10.8146
0.0 156.8117 0.0
0.0 159.51535 2.70365
2.70365 156.8117 2.70365
2.70365 159.51535 0.0
0.0 156.8117 5.4073
0.0 159.51535 8.11095
2.70365 156.8117 8.11095
2.70365 159.51535 5.4073
0.0 156.8117 10.8146
0.0 159.51535 13.51825
2.70365 156.8117 13.51825
2.70365 159.51535 10.8146
0.0 162.219 0.0
0.0 164.92265 2.70365
2.70365 162.219 2.70365
2.70365 164.92265 0.0
0.0 162.219 5.4073
0.0 164.92265 8.11095
2.70365 162.219 8.11095
2.70365 164.92265 5.4073
0.0 162.219 10.8146
0.0 164.92265 13.51825
2.70365 162.219 13.51825
2.70365 164.92265 10.8146
0.0 167.6263 0.0
0.0 170.32995 2.70365
2.70365 167.6263 2.70365
2.70365 170.32995 0.0
0.0 167.6263 5.4073
0.0 170.32995 8.11095
2.70365 167.6263 8.11095
2.70365 170.32995 5.4073
0.0 167.6263 10.8146
0.0 170.32995 13.51825
2.70365 167.6263 13.51825
2.70365 170.32995 10.8146
0.0 173.0336 0.0
0.0 175.73725 2.70365
2.70365 173.0336 2.70365
2.70365 175.73725 0.0
0.0 173.0336 5.4073
0.0 175.73725 8.11095
2.70365 173.0336 8.11095
2.70365 175.73725 5.4073
0.0 173.0336 10.8146
0.0 175.73725 13.51825
2.70365 173.0336 13.51825
2.70365 175.73725 10.8146
0.0 178.4409 0.0
0.0 181.14455 2.70365
2.70365 178.4409 2.70365
2.70365 181.14455 0.0
0.0 178.4409 5.4073
0.0 181.14455 8.11095
2.70365 178.4409 8.11095
2.70365 181.14455 5.4073
0.0 178.4409 10.8146
0.0 181.14455 13.51825
2.70365 178.4409 13.51825
2.70365 181.14455 10.8146
0.0 183.8482 0.0
0.0 186.55185 2.70365
2.70365 183.8482 2.70365
2.70365 186.55185 0.0
0.0 183.8482 5.4073
0.0 186.55185 8.11095
2.70365 183.8482 8.11095
2.70365 186.55185 5.4073
0.0 183.8482 10.8146
0.0 186.55185 13.51825
2.70365 183.8482 13.51825
2.70365 186.55185 10.8146
0.0 189.2555 0.0
0.0 191.95915 2.70365
2.70365 189.2555 2.70365
2.70365 191.95915 0.0
0.0 189.2555 5.4073
0.0 191.95915 8.11095
2.70365 189.2555 8.11095
2.70365 191.95915 5.4073
0.0 189.2555 10.8146
0.0 191.95915 13.51825
2.70365 189.2555 13.51825
2.70365 191.95915 10.8146
0.0 194.6628 0.0
0.0 197.36645 2.70365
2.70365 194.6628 2.70365
2.70365 197.36645 0.0
0.0 194.6628 5.4073
0.0 197.36645 8.11095
2.70365 194.6628 8.11095
2.70365 197.36645 5.4073
0.0 194.6628 10.8146
0.0 197.36645 13.51825
2.70365 194.6628 13.51825
2.70365 197.36645 10.8146
0.0 200.0701 0.0
0.0 202.77375 2.70365
2.70365 200.0701 2.70365
2.70365 202.77375 0.0
0.0 200.0701 5.4073
0.0 202.77375 8.11095
2.70365 200.0701 8.11095
2.70365 202.77375 5.4073
0.0 200.0701 10.8146
0.0 202.77375 13.51825
2.70365 200.0701 13.51825
2.70365 202.77375 10.8146
0.0 205.4774 0.0
0.0 208.18105 2.70365
2.70365 205.4774 2.70365
2.70365 208.18105 0.0
0.0 205.4774 5.4073
0.0 208.18105 8.11095
2.70365 205.4774 8.11095
2.70365 208.18105 5.4073
0.0 205.4774 10.8146
0.0 208.18105 13.51825
2.70365 205.4774 13.51825
2.70365 208.18105 10.8146
0.0 210.8847 0.0
0.0 213.58835 2.70365
2.70365 210.8847 2.70365
2.70365 213.58835 0.0
0.0 210.8847 5.4073
0.0 213.58835 8.11095
2.70365 210.8847 8.11095
2.70365 213.58835 5.4073
0.0 210.8847 10.8146
0.0 213.58835 13.51825
2.70365 210.8847 13.51825
2.70365 213.58835 10.8146
0.0 216.292 0.0
0.0 218.99565 2.70365
2.70365 216.292 2.70365
2.70365 218.99565 0.0
0.0 216.292 5.4073
0.0 218.99565 8.11095
2.70365 216.292 8.11095
2.70365 218.99565 5.4073
0.0 216.292 10.8146
0.0 218.99565 13.51825
2.70365 216.292 13.51825
2.70365 218.99565 10.8146
0.0 221.6993 0.0
0.0 224.40295 2.70365
2.70365 221.6993 2.70365
2.70365 224.40295 0.0
0.0 221.6993 5.4073
0.0 224.40295 8.11095
2.70365 221.6993 8.11095
2.70365 224.40295 5.4073
0.0 221.6993 10.8146
0.0 224.40295 13.51825
2.70365 221.6993 13.51825
2.70365 224.40295 10.8146
0.0 227.1066 0.0
0.0 229.81025 2.70365
2.70365 227.1066 2.70365
2.70365 229.81025 0.0
0.0 227.1066 5.4073
0.0 229.81025 8.11095
2.70365 227.1066 8.11095
2.70365 229.81025 5.4073
0.0 227.1066 10.8146
0.0 229.81025 13.51825
2.70365 227.1066 13.51825
2.70365 229.81025 10.8146
0.0 232.5139 0.0
0.0 235.21755 2.70365
2.70365 232.5139 2.70365
2.70365 235.21755 0.0
0.0 232.5139 5.4073
0.0 235.21755 8.11095
2.70365 232.5139 8.11095
2.70365 235.21755 5.4073
0.0 232.5139 10.8146
0.0 235.21755 13.51825
2.70365 232.5139 13.51825
2.70365 235.21755 10.8146
0.0 237.9212 0.0
0.0 240.62485 2.70365
2.70365 237.9212 2.70365
2.70365 240.62485 0.0
0.0 237.9212 5.4073
0.0 240.62485 8.11095
2.70365 237.9212 8.11095
2.70365 240.62485 5.4073
0.0 237.9212 10.8146
0.0 240.62485 13.51825
2.70365 237.9212 13.51825
2.70365 240.62485 10.8146
0.0 243.3285 0.0
0.0 246.03215 2.70365
2.70365 243.3285 2.70365
2.70365 246.03215 0.0
0.0 243.3285 5.4073
0.0 246.03215 8.11095
2.70365 243.3285 8.11095
2.70365 246.03215 5.4073
0.0 243.3285 10.8146
0.0 246.03215 13.51825
2.70365 243.3285 13.51825
2.70365 246.03215 10.8146
0.0 248.7358 0.0
0.0 251.43945 2.70365
2.70365 248.7358 2.70365
2.70365 251.43945 0.0
0.0 248.7358 5.4073
0.0 251.43945 8.11095
2.70365 248.7358 8.11095
2.70365 251.43945 5.4073
0.0 248.7358 10.8146
0.0 251.43945 13.51825
2.70365 248.7358 13.51825
2.70365 251.43945 10.8146
0.0 254.1431 0.0
0.0 256.84675 2.70365
2.70365 254.1431 2.70365
2.70365 256.84675 0.0
0.0 254.1431 5.4073
0.0 256.84675 8.11095
2.70365 254.1431 8.11095
2.70365 256.84675 5.4073
0.0 254.1431 10.8146
0.0 256.84675 13.51825
2.70365 254.1431 13.51825
2.70365 256.84675 10.8146
0.0 259.5504 0.0
0.0 262.25405 2.70365
2.70365 259.5504 2.70365
2.70365 262.25405 0.0
0.0 259.5504 5.4073
0.0 262.25405 8.11095
2.70365 259.5504 8.11095
2.70365 262.25405 5.4073
0.0 259.5504 10.8146
0.0 262.25405 13.51825
2.70365 259.5504 13.51825
2.70365 262.25405 10.8146
5.4073 0.0 0.0
5.4073 2.70365 2.70365
8.11095 0.0 2.70365
8.11095 2.70365 0.0
5.4073 0.0 5.4073
5.4073 2.70365 8.11095
8.11095 0.0 8.11095
8.11095 2.70365 5.4073
5.4073 0.0 10.8146
5.4073 2.70365 13.51825
8.11095 0.0 13.51825
8.11095 2.70365 10.8146
5.4073 5.4073 0.0
5.4073 8.11095 2.70365
8.11095 5.4073 2.70365
8.11095 8.11095 0.0
5.4073 5.4073 5.4073
5.4073 8.11095 8.11095
8.11095 5.4073 8.11095
8.11095 8.11095 5.4073
5.4073 5.4073 10.8146
5.4073 8.11095 13.51825
8.11095 5.4073 13.51825
8.11095 8.11095 10.8146
5.4073 10.8146 0.0
5.4073 13.51825 2.70365
8.11095 10.8146 2.70365
8.11095 13.51825 0.0
5.4073 10.8146 5.4073
5.4073 13.51825 8.11095
8.11095 10.8146 8.11095
8.11095 13.51825 5.4073
5.4073 10.8146 10.8146
5.4073 13.51825 13.51825
8.11095 10.8146 13.51825
8.11095 13.51825 10.8146
5.4073 16.2219 0.0
5.4073 18.92555 2.70365
8.11095 16.2219 2.70365
8.11095 18.92555 0.0
5.4073 16.2219 5.4073
5.4073 18.92555 8.11095
8.11095 16.2219 8.11095
8.11095 18.92555 5.4073
5.4073 16.2219 10.8146
5.4073 18.92555 13.51825
8.11095 16.2219 13.51825
8.11095 18.92555 10.8146
5.4073 21.6292 0.0
5.4073 24.33285 2.70365
8.11095 21.6292 2.70365
8.11095 24.33285 0.0
5.4073 21.6292 5.4073
5.4073 24.33285 8.11095
8.11095 21.6292 8.11095
8.11095 24.33285 5.4073
5.4073 21.6292 10.8146
5.4073 24.33285 13.51825
8.11095 21.6292 13.51825
8.11095 24.33285 10.8146
5.4073 27.0365 0.0
5.4073 29.74015 2.70365
8.11095 27.0365 2.70365
8.11095 29.74015 0.0
5.4073 27.0365 5.4073
5.4073 29.74015 8.11095
8.11095 27.0365 8.11095
8.11095 29.74015 5.4073
5.4073 27.0365 10.8146
5.4073 29.74015 13.51825
8.11095 27.0365 13.51825
8.11095 29.74015 10.8146
5.4073 32.4438 0.0
5.4073 35.14745 2.70365
8.11095 32.4438 2.70365
8.11095 35.14745 0.0
5.4073 32.4438 5.4073
5.4073 35.14745 8.11095
8.11095 32.4438 8.11095
8.11095 35.14745 5.4073
5.4073 32.4438 10.8146
5.4073 35.14745 13.51825
8.11095 32.4438 13.51825
8.11095 35.14745 10.8146
5.4073 37.8511 0.0
5.4073 40.55475 2.70365
8.11095 37.8511 2.70365
8.11095 40.55475 0.0
5.4073 37.8511 5.4073
5.4073 40.55475 8.11095
8.11095 37.8511 8.11095
8.11095 40.55475 5.4073
5.4073 37.8511 10.8146
5.4073 40.55475 13.51825
8.11095 37.8511 13.51825
8.11095 40.55475 10.8146
5.4073 43.2584 0.0
5.4073 45.96205 2.70365
8.11095 43.2584 2.70365
8.11095 45.96205 0.0
5.4073 43.2584 5.4073
5.4073 45.96205 8.11095
8.11095 43.2584 8.11095
8.11095 45.96205 5.4073
5.4073 43.2584 10.8146
5.4073 45.96205 13.51825
8.11095 43.2584 13.51825
8.11095 45.96205 10.8146
5.4073 48.6657 0.0
5.4073 51.36935 2.70365
8.11095 48.6657 2.70365
8.11095 51.36935 0.0
5.4073 48.6657 5.4073
5.4073 51.36935 8.11095
8.11095 48.6657 8.11095
8.11095 51.36935 5.4073
5.4073 48.6657 10.8146
5.4073 51.36935 13.51825
8.11095 48.6657 13.51825
8.11095 51.36935 10.8146
5.4073 54.073 0.0
5.4073 56.77665 2.70365
8.11095 54.073 2.70365
8.11095 56.77665 0.0
5.4073 54.073 5.4073
5.4073 56.77665 8.11095
8.11095 54.073 8.11095
8.11095 56.77665 5.4073
5.4073 54.073 10.8146
5.4073 56.77665 13.51825
8.11095 54.073 13.51825
8.11095 56.77665 10.8146
5.4073 59.4803 0.0
5.4073 62.18395 2.70365
8.11095 59.4803 2.70365
8.11095 62.18395 0.0
5.4073 59.4803 5.4073
5.4073 62.18395 8.11095
8.11095 59.4803 8.11095
8.11095 62.18395 5.4073
5.4073 59.4803 10.8146
5.4073 62.18395 13.51825
8.11095 59.4803 13.51825
8.11095 62.18395 10.8146
5.4073 64.8876 0.0
5.4073 67.59125 2.70365
8.11095 64.8876 2.70365
8.11095 67.59125 0.0
5.4073 64.8876 5.4073
5.4073 67.59125 8.11095
8.11095 64.8876 8.11095
8.11095 67.59125 5.4073
5.4073 64.8876 10.8146
5.4073 67.59125 13.51825
8.11095 64.8876 13.51825
8.11095 67.59125 10.8146
5.4073 70.2949 0.0
5.4073 72.99855 2.70365
8.11095 70.2949 2.70365
8.11095 72.99855 0.0
5.4073 70.2949 5.4073
5.4073 72.99855 8.11095
8.11095 70.2949 8.11095
8.11095 72.99855 5.4073
5.4073 70.2949 10.8146
5.4073 72.99855 13.51825
8.11095 70.2949 13.51825
8.11095 72.99855 10.8146
5.4073 75.7022 0.0
5.4073 78.40585 2.70365
8.11095 75.7022 2.70365
8.11095 78.40585 0.0
5.4073 75.7022 5.4073
5.4073 78.40585 8.11095
8.11095 75.7022 8.11095
8.11095 78.40585 5.4073
5.4073 75.7022 10.8146
5.4073 78.40585 13.51825
8.11095 75.7022 13.51825
8.11095 78.40585 10.8146
5.4073 81.1095 0.0
5.4073 83.81315 2.70365
8.11095 81.1095 2.70365
8.11095 83.81315 0.0
5.4073 81.1095 5.4073
5.4073 83.81315 8.11095
8.11095 81.1095 8.11095
8.11095 83.81315 5.4073
5.4073 81.1095 10.8146
5.4073 83.81315 13.51825
8.11095 81.1095 13.51825
8.11095 83.81315 10.8146
5.4073 86.5168 0.0
5.4073 89.22045 2.70365
8.11095 86.5168 2.70365
8.11095 89.22045 0.0
5.4073 86.5168 5.4073
5.4073 89.22045 8.11095
8.11095 86.5168 8.11095
8.11095 89.22045 5.4073
5.4073 86.5168 10.8146
5.4073 89.22045 13.51825
8.11095 86.5168 13.51825
8.11095 89.22045 10.8146
5.4073 91.9241 0.0
5.4073 94.62775 2.70365
8.11095 91.9241 2.70365
8.11095 94.62775 0.0
5.4073 91.9241 5.4073
5.4073 94.62775 8.11095
8.11095 91.9241 8.11095
8.11095 94.62775 5.4073
5.4073 91.9241 10.8146
5.4073 94.62775 13.51825
8.11095 91.9241 13.51825
8.11095 94.62775 10.8146
5.4073 97.3314 0.0
5.4073 100.03505 2.70365
8.11095 97.3314 2.70365
8.11095 100.03505 0.0
5.4073 97.3314 5.4073
5.4073 100.03505 8.11095
8.11095 97.3314 8.11095
8.11095 100.03505 5.4073
5.4073 97.3314 10.8146
5.4073 100.03505 13.51825
8.11095 97.3314 13.51825
8.11095 100.03505 10.8146
5.4073 102.7387 0.0
5.4073 105.44235 2.70365
8.11095 102.7387 2.70365
8.11095 105.44235 0.0
5.4073 102.7387 5.4073
5.4073 105.44235 8.11095
8.11095 102.7387 8.11095
8.11095 105.44235 5.4073
5.4073 102.7387 10.8146
5.4073 105.44235 13.51825
8.11095 102.7387 13.51825
8.11095 105.44235 10.8146
5.4073 108.146 0.0
5.4073 110.84965 2.70365
8.11095 108.146 2.70365
8.11095 110.84965 0.0
5.4073 108.146 5.4073
5.4073 110.84965 8.11095
8.11095 108.146 8.11095
8.11095 110.84965 5.4073
5.4073 108.146 10.8146
5.4073 110.84965 13.51825
8.11095 108.146 13.51825
8.11095 110.84965 10.8146
5.4073 113.5533 0.0
5.4073 116.25695 2.70365
8.11095 113.5533 2.70365
8.11095 116.25695 0.0
5.4073 113.5533 5.4073
5.4073 116.25695 8.11095
8.11095 113.5533 8.11095
8.11095 116.25695 5.4073
5.4073 113.5533 10.8146
5.4073 116.25695 13.51825
8.11095 113.5533 13.51825
8.11095 116.25695 10.8146
5.4073 118.9606 0.0
5.4073 121.66425 2.70365
8.11095 118.9606 2.70365
8.11095 121.66425 0.0
5.4073 118.9606 5.4073
5.4073 121.66425 8.11095
8.11095 118.9606 8.11095
8.11095 121.66425 5.4073
5.4073 118.9606 10.8146
5.4073 121.66425 13.51825
8.11095 118.9606 13.51825
8.11095 121.66425 10.8146
5.4073 124.3679 0.0
5.4073 127.07155 2.70365
8.11095 124.3679 2.70365
8.11095 127.07155 0.0
5.4073 124.3679 5.4073
5.4073 127.07155 8.11095
8.11095 124.3679 8.11095
8.11095 127.07155 5.4073
5.4073 124.3679 10.8146
5.4073 127.07155 13.51825
8.11095 124.3679 13.51825
8.11095 127.07155 10.8146
5.4073 129.7752 0.0
5.4073 132.47885 2.70365
8.11095 129.7752 2.70365
8.11095 132.47885 0.0
5.4073 129.7752 5.4073
5.4073 132.47885 8.11095
8.11095 129.7752 8.11095
8.11095 132.47885 5.4073
5.4073 129.7752 10.8146
5.4073 132.47885 13.51825
8.11095 129.7752 13.51825
8.11095 132.47885 10.8146
5.4073 135.1825 0.0
5.4073 137.88615 2.70365
8.11095 135.1825 2.70365
8.11095 137.88615 0.0
5.4073 135.1825 5.4073
5.4073 137.88615 8.11095
8.11095 135.1825 8.11095
8.11095 137.88615 5.4073
5.4073 135.1825 10.8146
5.4073 137.88615 13.51825
8.11095 135.1825 13.51825
8.11095 137.88615 10.8146
5.4073 140.5898 0.0
5.4073 143.29345 2.70365
8.11095 140.5898 2.70365
8.11095 143.29345 0.0
5.4073 140.5898 5.4073
5.4073 143.29345 8.11095
8.11095 140.5898 8.11095
8.11095 143.29345 5.4073
5.4073 140.5898 10.8146
5.4073 143.29345 13.51825
8.11095 140.5898 13.51825
8.11095 143.29345 10.8146
5.4073 145.9971 0.0
5.4073 148.70075 2.70365
8.11095 145.9971 2.70365
8.11095 148.70075 0.0
5.4073 145.9971 5.4073
5.4073 148.70075 8.11095
8.11095 145.9971 8.11095
8.11095 148.70075 5.4073
5.4073 145.9971 10.8146
5.4073 148.70075 13.51825
8.11095 145.9971 13.51825
8.11095 148.70075 10.8146
5.4073 151.4044 0.0
5.4073 154.10805 2.70365
8.11095 151.4044 2.70365
8.11095 154.10805 0.0
5.4073 151.4044 5.4073
5.4073 154.10805 8.11095
8.11095 151.4044 8.11095
8.11095 154.10805 5.4073
5.4073 151.4044 10.8146
5.4073 154.10805 13.51825
8.11095 151.4044 13.51825
8.11095 154.10805 10.8146
5.4073 156.8117 0.0
5.4073 159.51535 2.70365
8.11095 156.8117 2.70365
8.11095 159.51535 0.0
5.4073 156.8117 5.4073
5.4073 159.51535 8.11095
8.11095 156.8117 8.11095
8.11095 159.51535 5.4073
5.4073 156.8117 10.8146
5.4073 159.51535 13.51825
8.11095 156.8117 13.51825
8.11095 159.51535 10.8146
5.4073 162.219 0.0
5.4073 164.92265 2.70365
8.11095 162.219 2.70365
8.11095 164.92265 0.0
5.4073 162.219 5.4073
5.4073 164.92265 8.11095
8.11095 162.219 8.11095
8.11095 164.92265 5.4073
5.4073 162.219 10.8146
5.4073 164.92265 13.51825
8.11095 162.219 13.51825
8.11095 164.92265 10.8146
5.4073 167.6263 0.0
5.4073 170.32995 2.70365
8.11095 167.6263 2.70365
8.11095 170.32995 0.0
5.4073 167.6263 5.4073
5.4073 170.32995 8.11095
8.11095 167.6263 8.11095
8.11095 170.32995 5.4073
5.4073 167.6263 10.8146
5.4073 170.32995 13.51825
8.11095 167.6263 13.51825
8.11095 170.32995 10.8146
5.4073 173.0336 0.0
5.4073 175.73725 2.70365
8.11095 173.0336 2.70365
8.11095 175.73725 0.0
5.4073 173.0336 5.4073
5.4073 175.73725 8.11095
8.11095 173.0336 8.11095
8.11095 175.73725 5.4073
5.4073 173.0336 10.8146
5.4073 175.73725 13.51825
8.11095 173.0336 13.51825
8.11095 175.73725 10.8146
5.4073 178.4409 0.0
5.4073 181.14455 2.70365
8.11095 178.4409 2.70365
8.11095 181.14455 0.0
5.4073 178.4409 5.4073
5.4073 181.14455 8.11095
8.11095 178.4409 8.11095
8.11095 181.14455 5.4073
5.4073 178.4409 10.8146
5.4073 181.14455 13.51825
8.11095 178.4409 13.51825
8.11095 181.14455 10.8146
5.4073 183.8482 0.0
5.4073 186.55185 2.70365
8.11095 183.8482 2.70365
8.11095 186.55185 0.0
5.4073 183.8482 5.4073
5.4073 186.55185 8.11095
8.11095 183.8482 8.11095
8.11095 186.55185 5.4073
5.4073 183.8482 10.8146
5.4073 186.55185 13.51825
8.11095 183.8482 13.51825
8.11095 186.55185 10.8146
5.4073 189.2555 0.0
5.4073 191.95915 2.70365
8.11095 189.2555 2.70365
8.11095 191.95915 0.0
5.4073 189.2555 5.4073
5.4073 191.95915 8.11095
8.11095 189.2555 8.11095
8.11095 191.95915 5.4073
5.4073 189.2555 10.8146
5.4073 191.95915 13.51825
8.11095 189.2555 13.51825
8.11095 191.95915 10.8146
5.4073 194.6628 0.0
5.4073 197.36645 2.70365
8.11095 194.6628 2.70365
8.11095 197.36645 0.0
5.4073 194.6628 5.4073
5.4073 197.36645 8.11095
8.11095 194.6628 8.11095
8.11095 197.36645 5.4073
5.4073 194.6628 10.8146
5.4073 197.36645 13.51825
8.11095 194.6628 13.51825
8.11095 197.36645 10.8146
5.4073 200.0701 0.0
5.4073 202.77375 2.70365
8.11095 200.0701 2.70365
8.11095 202.77375 0.0
5.4073 200.0701 5.4073
5.4073 202.77375 8.11095
8.11095 200.0701 8.11095
8.11095 202.77375 5.4073
5.4073 200.0701 10.8146
5.4073 202.77375 13.51825
8.11095 200.0701 13.51825
8.11095 202.77375 10.8146
5.4073 205.4774 0.0
5.4073 208.18105 2.70365
8.11095 205.4774 2.70365
8.11095 208.18105 0.0
5.4073 205.4774 5.4073
5.4073 208.18105 8.11095
8.11095 205.4774 8.11095
8.11095 208.18105 5.4073
5.4073 205.4774 10.8146
5.4073 208.18105 13.51825
8.11095 205.4774 13.51825
8.11095 208.18105 10.8146
5.4073 210.8847 0.0
5.4073 213.58835 2.70365
8.11095 210.8847 2.70365
8.11095 213.58835 0.0
5.4073 210.8847 5.4073
5.4073 213.58835 8.11095
8.11095 210.8847 8.11095
8.11095 213.58835 5.4073
5.4073 210.8847 10.8146
5.4073 213.58835 13.51825
8.11095 210.8847 13.51825
8.11095 213.58835 10.8146
5.4073 216.292 0.0
5.4073 218.99565 2.70365
8.11095 216.292 2.70365
8.11095 218.99565 0.0
5.4073 216.292 5.4073
5.4073 218.99565 8.11095
8.11095 216.292 8.11095
8.11095 218.99565 5.4073
5.4073 216.292 10.8146
5.4073 218.99565 13.51825
8.11095 216.292 13.51825
8.11095 218.99565 10.8146
5.4073 221.6993 0.0
5.4073 224.40295 2.70365
8.11095 221.6993 2.70365
8.11095 224.40295 0.0
5.4073 221.6993 5.4073
5.4073 224.40295 8.11095
8.11095 221.6993 8.11095
8.11095 224.40295 5.4073
5.4073 221.6993 10.8146
5.4073 224.40295 13.51825
8.11095 221.6993 13.51825
8.11095 224.40295 10.8146
5.4073 227.1066 0.0
5.4073 229.81025 2.70365
8.11095 227.1066 2.70365
8.11095 229.81025 0.0
5.4073 227.1066 5.4073
5.4073 229.81025 8.11095
8.11095 227.1066 8.11095
8.11095 229.81025 5.4073
5.4073 227.1066 10.8146
5.4073 229.81025 13.51825
8.11095 227.1066 13.51825
8.11095 229.81025 10.8146
5.4073 232.5139 0.0
5.4073 235.21755 2.70365
8.11095 232.5139 2.70365
8.11095 235.21755 0.0
5.4073 232.5139 5.4073
5.4073 235.21755 8.11095
8.11095 232.5139 8.11095
8.11095 235.21755 5.4073
5.4073 232.5139 10.8146
5.4073 235.21755 13.51825
8.11095 232.5139 13.51825
8.11095 235.21755 10.8146
5.4073 237.9212 0.0
5.4073 240.62485 2.70365
8.11095 237.9212 2.70365
8.11095 240.62485 0.0
5.4073 237.9212 5.4073
5.4073 240.62485 8.11095
8.11095 237.9212 8.11095
8.11095 240.62485 5.4073
5.4073 237.9212 10.8146
5.4073 240.62485 13.51825
8.11095 237.9212 13.51825
8.11095 240.62485 10.8146
5.4073 243.3285 0.0
5.4073 246.03215 2.70365
8.11095 243.3285 2.70365
8.11095 246.03215 0.0
5.4073 243.3285 5.4073
5.4073 246.03215 8.11095
8.11095 243.3285 8.11095
8.11095 246.03215 5.4073
5.4073 243.3285 10.8146
5.4073 246.03215 13.51825
8.11095 243.3285 13.51825
8.11095 246.03215 10.8146
5.4073 248.7358 0.0
5.4073 251.43945 2.70365
8.11095 248.7358 2.70365
8.11095 251.43945 0.0
5.4073 248.7358 5.4073
5.4073 251.43945 8.11095
8.11095 248.7358 8.11095
8.11095 251.43945 5.4073
5.4073 248.7358 10.8146
5.4073 251.43945 13.51825
8.11095 248.7358 13.51825
8.11095 251.43945 10.8146
5.4073 254.1431 0.0
5.4073 256.84675 2.70365
8.11095 254.1431 2.70365
8.11095 256.84675 0.0
5.4073 254.1431 5.4073
5.4073 256.84675 8.11095
8.11095 254.1431 8.11095
8.11095 256.84675 5.4073
5.4073 254.1431 10.8146
5.4073 256.84675 13.51825
8.11095 254.1431 13.51825
8.11095 256.84675 10.8146
5.4073 259.5504 0.0
5.4073 262.25405 2.70365
8.11095 259.5504 2.70365
8.11095 262.25405 0.0
5.4073 259.5504 5.4073
5.4073 262.25405 8.11095
8.11095 259.5504 8.11095
8.11095 262.25405 5.4073
5.4073 259.5504 10.8146
5.4073 262.25405 13.51825
8.11095 259.5504 13.51825
8.11095 262.25405 10.8146
10.8146 0.0 0.0
10.8146 2.70365 2.70365
13.51825 0.0 2.70365
13.51825 2.70365 0.0
10.8146 0.0 5.4073
10.8146 2.70365 8.11095
13.51825 0.0 8.11095
13.51825 2.70365 5.4073
10.8146 0.0 10.8146
10.8146 2.70365 13.51825
13.51825 0.0 13.51825
13.51825 2.70365 10.8146
10.8146 5.4073 0.0
10.8146 8.11095 2.70365
13.51825 5.4073 2.70365
13.51825 8.11095 0.0
10.8146 5.4073 5.4073
10.8146 8.11095 8.11095
13.51825 5.4073 8.11095
13.51825 8.11095 5.4073
10.8146 5.4073 10.8146
10.8146 8.11095 13.51825
13.51825 5.4073 13.51825
13.51825 8.11095 10.8146
10.8146 10.8146 0.0
10.8146 13.51825 2.70365
13.51825 10.8146 2.70365
13.51825 13.51825 0.0
10.8146 10.8146 5.4073
10.8146 13.51825 8.11095
13.51825 10.8146 8.11095
13.51825 13.51825 5.4073
10.8146 10.8146 10.8146
10.8146 13.51825 13.51825
13.51825 10.8146 13.51825
13.51825 13.51825 10.8146
10.8146 16.2219 0.0
10.8146 18.92555 2.70365
13.51825 16.2219 2.70365
13.51825 18.92555 0.0
10.8146 16.2219 5.4073
10.8146 18.92555 8.11095
13.51825 16.2219 8.11095
13.51825 18.92555 5.4073
10.8146 16.2219 10.8146
10.8146 18.92555 13.51825
13.51825 16.2219 13.51825
13.51825 18.92555 10.8146
10.8146 21.6292 0.0
10.8146 24.33285 2.70365
13.51825 21.6292 2.70365
13.51825 24.33285 0.0
10.8146 21.6292 5.4073
10.8146 24.33285 8.11095
13.51825 21.6292 8.11095
13.51825 24.33285 5.4073
10.8146 21.6292 10.8146
10.8146 24.33285 13.51825
13.51825 21.6292 13.51825
13.51825 24.33285 10.8146
10.8146 27.0365 0.0
10.8146 29.74015 2.70365
13.51825 27.0365 2.70365
13.51825 29.74015 0.0
10.8146 27.0365 5.4073
10.8146 29.74015 8.11095
13.51825 27.0365 8.11095
13.51825 29.74015 5.4073
10.8146 27.0365 10.8146
10.8146 29.74015 13.51825
13.51825 27.0365 13.51825
13.51825 29.74015 10.8146
10.8146 32.4438 0.0
10.8146 35.14745 2.70365
13.51825 32.4438 2.70365
13.51825 35.14745 0.0
10.8146 32.4438 5.4073
10.8146 35.14745 8.11095
13.51825 32.4438 8.11095
13.51825 35.14745 5.4073
10.8146 32.4438 10.8146
10.8146 35.14745 13.51825
13.51825 32.4438 13.51825
13.51825 35.14745 10.8146
10.8146 37.8511 0.0
10.8146 40.55475 2.70365
13.51825 37.8511 2.70365
13.51825 40.55475 0.0
10.8146 37.8511 5.4073
10.8146 40.55475 8.11095
13.51825 37.8511 8.11095
13.51825 40.55475 5.4073
10.8146 37.8511 10.8146
10.8146 40.55475 13.51825
13.51825 37.8511 13.51825
13.51825 40.55475 10.8146
10.8146 43.2584 0.0
10.8146 45.96205 2.70365
13.51825 43.2584 2.70365
13.51825 45.96205 0.0
10.8146 43.2584 5.4073
10.8146 45.96205 8.11095
13.51825 43.2584 8.11095
13.51825 45.96205 5.4073
10.8146 43.2584 10.8146
10.8146 45.96205 13.51825
13.51825 43.2584 13.51825
13.51825 45.96205 10.8146
10.8146 48.6657 0.0
10.8146 51.36935 2.70365
13.51825 48.6657 2.70365
13.51825 51.36935 0.0
10.8146 48.6657 5.4073